Problem:    ex2folha8
Rows:       5
Columns:    4
Non-zeros:  11
Status:     OPTIMAL
Objective:  0 (MINimum)

   No.   Row name   St   Activity     Lower bound   Upper bound    Marginal
------ ------------ -- ------------- ------------- ------------- -------------
     1 R1           NS            19            19             =         < eps
     2 R2           B             14            14             = 
     3 R3           NS            15            15             =         < eps
     4 R4           NS            13            13             =         < eps
     5 R5           NS            19            19             =         < eps

   No. Column name  St   Activity     Lower bound   Upper bound    Marginal
------ ------------ -- ------------- ------------- ------------- -------------
     1 c            B              6             0               
     2 t            B              8             0               
     3 q            B              5             0               
     4 e            B              3             0               

Karush-Kuhn-Tucker optimality conditions:

KKT.PE: max.abs.err = 0.00e+00 on row 0
        max.rel.err = 0.00e+00 on row 0
        High quality

KKT.PB: max.abs.err = 0.00e+00 on row 0
        max.rel.err = 0.00e+00 on row 0
        High quality

KKT.DE: max.abs.err = 0.00e+00 on column 0
        max.rel.err = 0.00e+00 on column 0
        High quality

KKT.DB: max.abs.err = 0.00e+00 on row 0
        max.rel.err = 0.00e+00 on row 0
        High quality

End of output
